files/upTests/n2/0003.eprime.solution
language ESSENCE' 1.0
$ minion Nodes: 4
$ minion TotalTime: 0.001843
$ Savile Row TotalTime: 0.592
letting x_SetExplicitVarSize_tuple2_SetOccurrence be [[false, true;int(1..2)], 
[false, true;int(1..2)], 
[false, true;int(1..2)], 
[false, true;int(1..2)];int(1..4)]
letting x_SetExplicitVarSize_tuple1 be [false, false, false, true;int(1..4)]
